c generated by sgen
p cnf 121 252
-2 -3 -4 0
-1 -3 -4 0
-1 -2 -4 0
-1 -2 -3 0
-6 -7 -8 0
-5 -7 -8 0
-5 -6 -8 0
-5 -6 -7 0
-10 -11 -12 0
-9 -11 -12 0
-9 -10 -12 0
-9 -10 -11 0
-14 -15 -16 0
-13 -15 -16 0
-13 -14 -16 0
-13 -14 -15 0
-18 -19 -20 0
-17 -19 -20 0
-17 -18 -20 0
-17 -18 -19 0
-22 -23 -24 0
-21 -23 -24 0
-21 -22 -24 0
-21 -22 -23 0
-26 -27 -28 0
-25 -27 -28 0
-25 -26 -28 0
-25 -26 -27 0
-30 -31 -32 0
-29 -31 -32 0
-29 -30 -32 0
-29 -30 -31 0
-34 -35 -36 0
-33 -35 -36 0
-33 -34 -36 0
-33 -34 -35 0
-38 -39 -40 0
-37 -39 -40 0
-37 -38 -40 0
-37 -38 -39 0
-42 -43 -44 0
-41 -43 -44 0
-41 -42 -44 0
-41 -42 -43 0
-46 -47 -48 0
-45 -47 -48 0
-45 -46 -48 0
-45 -46 -47 0
-50 -51 -52 0
-49 -51 -52 0
-49 -50 -52 0
-49 -50 -51 0
-54 -55 -56 0
-53 -55 -56 0
-53 -54 -56 0
-53 -54 -55 0
-58 -59 -60 0
-57 -59 -60 0
-57 -58 -60 0
-57 -58 -59 0
-62 -63 -64 0
-61 -63 -64 0
-61 -62 -64 0
-61 -62 -63 0
-66 -67 -68 0
-65 -67 -68 0
-65 -66 -68 0
-65 -66 -67 0
-70 -71 -72 0
-69 -71 -72 0
-69 -70 -72 0
-69 -70 -71 0
-74 -75 -76 0
-73 -75 -76 0
-73 -74 -76 0
-73 -74 -75 0
-78 -79 -80 0
-77 -79 -80 0
-77 -78 -80 0
-77 -78 -79 0
-82 -83 -84 0
-81 -83 -84 0
-81 -82 -84 0
-81 -82 -83 0
-86 -87 -88 0
-85 -87 -88 0
-85 -86 -88 0
-85 -86 -87 0
-90 -91 -92 0
-89 -91 -92 0
-89 -90 -92 0
-89 -90 -91 0
-94 -95 -96 0
-93 -95 -96 0
-93 -94 -96 0
-93 -94 -95 0
-98 -99 -100 0
-97 -99 -100 0
-97 -98 -100 0
-97 -98 -99 0
-102 -103 -104 0
-101 -103 -104 0
-101 -102 -104 0
-101 -102 -103 0
-106 -107 -108 0
-105 -107 -108 0
-105 -106 -108 0
-105 -106 -107 0
-110 -111 -112 0
-109 -111 -112 0
-109 -110 -112 0
-109 -110 -111 0
-114 -115 -116 0
-113 -115 -116 0
-113 -114 -116 0
-113 -114 -115 0
-117 -118 -119 0
-117 -118 -120 0
-117 -118 -121 0
-117 -119 -120 0
-117 -119 -121 0
-117 -120 -121 0
-118 -119 -120 0
-118 -119 -121 0
-118 -120 -121 0
-119 -120 -121 0
103 89 60 0
8 89 60 0
8 103 60 0
8 103 89 0
5 109 96 0
13 109 96 0
13 5 96 0
13 5 109 0
70 6 35 0
61 6 35 0
61 70 35 0
61 70 6 0
57 76 34 0
86 76 34 0
86 57 34 0
86 57 76 0
64 110 101 0
3 110 101 0
3 64 101 0
3 64 110 0
9 67 100 0
2 67 100 0
2 9 100 0
2 9 67 0
40 19 115 0
98 19 115 0
98 40 115 0
98 40 19 0
63 28 97 0
41 28 97 0
41 63 97 0
41 63 28 0
102 68 85 0
80 68 85 0
80 102 85 0
80 102 68 0
36 44 51 0
32 44 51 0
32 36 51 0
32 36 44 0
53 93 30 0
84 93 30 0
84 53 30 0
84 53 93 0
1 106 33 0
82 106 33 0
82 1 33 0
82 1 106 0
66 18 58 0
14 18 58 0
14 66 58 0
14 66 18 0
16 121 83 0
39 121 83 0
39 16 83 0
39 16 121 0
11 75 47 0
55 75 47 0
55 11 47 0
55 11 75 0
20 23 43 0
12 23 43 0
12 20 43 0
12 20 23 0
49 71 79 0
17 71 79 0
17 49 79 0
17 49 71 0
81 42 111 0
88 42 111 0
88 81 111 0
88 81 42 0
99 52 87 0
46 52 87 0
46 99 87 0
46 99 52 0
91 31 26 0
114 31 26 0
114 91 26 0
114 91 31 0
25 7 107 0
117 7 107 0
117 25 107 0
117 25 7 0
78 10 105 0
37 10 105 0
37 78 105 0
37 78 10 0
77 116 54 0
118 116 54 0
118 77 54 0
118 77 116 0
29 15 62 0
73 15 62 0
73 29 62 0
73 29 15 0
90 38 45 0
24 38 45 0
24 90 45 0
24 90 38 0
69 92 56 0
112 92 56 0
112 69 56 0
112 69 92 0
119 74 21 0
104 74 21 0
104 119 21 0
104 119 74 0
22 27 50 0
4 27 50 0
4 22 50 0
4 22 27 0
113 108 72 0
94 108 72 0
94 113 72 0
94 113 108 0
120 48 95 0
120 48 59 0
120 48 65 0
120 95 59 0
120 95 65 0
120 59 65 0
48 95 59 0
48 95 65 0
48 59 65 0
95 59 65 0
